Nodes = { GJ, HE, ET, SG, LC, EE, AA, TF, GO, QE, MI, BR, UV, EH, WK, NT, KI, AH, EL, GP, GM, LU, LB, QC, JJ, MM, VI, NV, VT, RE, FO, DV, SQ, OQ, FF, IV, HY, ML, JS, KU, QA, EU, SV, JG, DW, UD, QJ, HU, ZR, YA, JH, OS, LG, SB, UU, VL, AO, EM};
first_node = AA;

flow = [14, 0, 0, 0, 0, 13, 0, 0, 0, 24, 0, 0, 0, 0, 0, 0, 0, 22, 0, 0, 0, 9, 0, 0, 0, 0, 18, 0, 0, 0, 0, 10, 12, 23, 3, 0, 8, 0, 0, 5, 0, 0, 0, 0, 0, 0, 17, 0, 0, 0, 0, 15, 0, 4, 0, 0, 0, 0];

connections = [
{UV, AO, MM, UD, GM},
{QE, SV},
{LU, SB},
{FF, SB},
{QJ, GM},
{RE, BR},
{QC, ZR, NT, JG, FO},
{LU, MM},
{LB, AH},
{LG, HE},
{KU, FF},
{HY, EE},
{GP, GJ},
{UU, FF},
{HY, EL},
{FF, AA},
{OQ, AO},
{GO, RE},
{WK, SQ},
{SB, UV},
{LC, GJ},
{UU, DW, TF, ET, ML},
{GO, VI},
{ML, AA},
{QJ, DV},
{TF, GJ},
{LB},
{SB, KU},
{HY, JG},
{AH, EE},
{SB, AA},
{JH, UD, JJ},
{EL, QA},
{KI, IV, JS},
{EU, NT, SG, MI, EH},
{LG, OQ},
{VT, BR, WK},
{LU, QC},
{EM, OQ},
{MI, VL, NV, HU, DW},
{OS, SQ},
{FF, OS},
{QJ, HE},
{AA, VT},
{LU, KU},
{DV, GJ},
{JJ, SV, LC, EM, YA},
{JH, KU},
{AA, VL},
{QJ, OS},
{HU, DV},
{EU, YA, QA},
{QE, IV},
{FO, SG, NV, GP, ET},
{EH, LU},
{ZR, KU},
{GJ, KI},
{QJ, JS}
];
